centroides = 0;
nNurses = 93;
hours = 35;
demand = [12 3 6 6 14 10 7 2 11 4 2 0 13 3 1 16 20 15 21 21 5 15 10 19 20 21 10 2 4 18 18 8 8 19 16];
minHours = 2;
maxHours = 20;
maxConsec = 6;
maxPresence = 28;